#============================================================================
# Opacities computed by OpTool        <a^n>=  1.6590E-2  2.2147E-2  7.8864E-2
# Method:   DHS  fmax=  0.000
# Parameters:
#   amin [um]=      0.010 amax [um]=    100.000  na  =   61     apow=   3.5    
#   lmin [um]=      0.100 lmax [um]= 100000.000  nlam=  101     nang=   180
#   porosity =      0.000 p_mantle =      0.000  fmax=  0.0     chop=   0.0
# Composition:
#  Where   mfrac  rho   Material
#  -----   -----  ----  -----------------------------------------------------
#  core    0.496  1.50  c-org
#  core    0.093  4.83  fes
#  core    0.411  3.30  astrosil
#  - - -   - - -  -  -  - - - - - - - - - - - - - - - - - - - - - - - - - - -
#  grain   1.000  2.11  mixture of  3 materials
#----------------------------------------------------------------------------
# Command: /home/hyliu/bin/optool -a 0.01 100.0 3.5 -l 0.1 100000 101 \
#   -mie -radmc -c c-org 0.3966 fes 0.0743 astrosil 0.3291 -o \
#   ././kappa//temp_regime_2/
#============================================================================
# Output file formatted for RADMC-3D, dustkappa, no scattering matrix
#    iformat
#    nlambda
#    lambda[um]  kabs [cm^2/g]  ksca [cm^2/g]    g_asymmetry
#============================================================================
           3
         101
   1.000000E-01   4.682122E+03   3.332354E+03   6.849901E-01
   1.148154E-01   4.284890E+03   3.222568E+03   6.908152E-01
   1.318257E-01   3.803321E+03   3.224843E+03   6.852229E-01
   1.513561E-01   3.005984E+03   3.360785E+03   6.761276E-01
   1.737801E-01   2.429435E+03   3.123143E+03   6.955053E-01
   1.995262E-01   2.329202E+03   2.807944E+03   7.069529E-01
   2.290868E-01   2.144027E+03   2.658986E+03   7.033419E-01
   2.630268E-01   1.900551E+03   2.574047E+03   6.945772E-01
   3.019952E-01   1.665733E+03   2.488111E+03   6.861318E-01
   3.467369E-01   1.370640E+03   2.483136E+03   6.674876E-01
   3.981072E-01   1.097111E+03   2.444361E+03   6.543450E-01
   4.570882E-01   8.720122E+02   2.385981E+03   6.432082E-01
   5.248075E-01   7.679444E+02   2.236761E+03   6.433025E-01
   6.025596E-01   6.830118E+02   2.099659E+03   6.414709E-01
   6.918310E-01   6.312977E+02   1.956570E+03   6.417983E-01
   7.943282E-01   6.060703E+02   1.813715E+03   6.440593E-01
   9.120108E-01   5.610177E+02   1.701989E+03   6.435351E-01
   1.047129E+00   5.045019E+02   1.606633E+03   6.417594E-01
   1.202264E+00   4.614009E+02   1.497846E+03   6.424011E-01
   1.380384E+00   4.516238E+02   1.368008E+03   6.470206E-01
   1.584893E+00   4.353101E+02   1.259719E+03   6.480001E-01
   1.819701E+00   3.938748E+02   1.183032E+03   6.435419E-01
   2.089296E+00   3.578693E+02   1.103095E+03   6.424217E-01
   2.398833E+00   3.451502E+02   1.008053E+03   6.468107E-01
   2.754229E+00   3.858473E+02   8.776443E+02   6.642340E-01
   3.162278E+00   4.200316E+02   7.809015E+02   6.727579E-01
   3.630781E+00   3.289865E+02   7.935112E+02   6.479691E-01
   4.168694E+00   2.850917E+02   7.442354E+02   6.486600E-01
   4.786301E+00   2.690275E+02   6.767286E+02   6.568744E-01
   5.495409E+00   2.908832E+02   5.778884E+02   6.809453E-01
   6.309573E+00   3.288524E+02   4.949910E+02   6.964262E-01
   7.244360E+00   2.902495E+02   4.598243E+02   6.988413E-01
   8.317638E+00   3.576797E+02   3.368773E+02   7.503876E-01
   9.549926E+00   4.816601E+02   2.785518E+02   7.407333E-01
   1.096478E+01   4.700627E+02   2.877542E+02   7.028778E-01
   1.258925E+01   4.165630E+02   2.809270E+02   6.903665E-01
   1.445440E+01   3.955795E+02   2.567869E+02   6.887266E-01
   1.659587E+01   4.057426E+02   2.416906E+02   6.668951E-01
   1.905461E+01   3.724697E+02   2.350171E+02   6.479880E-01
   2.187762E+01   3.363769E+02   2.225806E+02   6.394374E-01
   2.511886E+01   3.235560E+02   2.032550E+02   6.338195E-01
   2.884032E+01   3.139799E+02   1.960768E+02   6.052487E-01
   3.311311E+01   2.777039E+02   1.913796E+02   5.838968E-01
   3.801894E+01   2.469802E+02   1.809581E+02   5.738763E-01
   4.365158E+01   2.183197E+02   1.718359E+02   5.618953E-01
   5.011872E+01   1.952905E+02   1.614831E+02   5.511101E-01
   5.754399E+01   1.734063E+02   1.521992E+02   5.387057E-01
   6.606934E+01   1.534707E+02   1.431379E+02   5.261758E-01
   7.585776E+01   1.349842E+02   1.346589E+02   5.128596E-01
   8.709636E+01   1.181052E+02   1.267681E+02   4.985086E-01
   1.000000E+02   1.029178E+02   1.191060E+02   4.837767E-01
   1.148154E+02   8.905751E+01   1.118572E+02   4.682616E-01
   1.318257E+02   7.632260E+01   1.045628E+02   4.503971E-01
   1.513561E+02   6.440241E+01   9.748400E+01   4.325251E-01
   1.737801E+02   5.396752E+01   9.023947E+01   4.162663E-01
   1.995262E+02   4.490533E+01   8.224727E+01   3.955985E-01
   2.290868E+02   3.688420E+01   7.465244E+01   3.716983E-01
   2.630268E+02   3.027120E+01   6.881888E+01   3.522780E-01
   3.019952E+02   2.422500E+01   6.319099E+01   3.417470E-01
   3.467369E+02   1.851228E+01   5.718744E+01   3.410986E-01
   3.981072E+02   1.412866E+01   4.967531E+01   3.383084E-01
   4.570882E+02   8.953952E+00   3.949126E+01   3.243820E-01
   5.248075E+02   6.329208E+00   2.882988E+01   3.452099E-01
   6.025596E+02   4.036662E+00   1.629788E+01   4.047066E-01
   6.918310E+02   2.055986E+00   7.479461E+00   2.823430E-01
   7.943282E+02   1.339198E+00   3.934408E+00   1.908706E-01
   9.120108E+02   9.670210E-01   2.127332E+00   1.355639E-01
   1.047129E+03   7.249033E-01   1.164984E+00   9.905302E-02
   1.202264E+03   5.564129E-01   6.446779E-01   7.349629E-02
   1.380384E+03   4.295940E-01   3.599223E-01   5.500751E-02
   1.584893E+03   3.306339E-01   2.022960E-01   4.136260E-02
   1.819701E+03   2.520106E-01   1.142699E-01   3.118108E-02
   2.089296E+03   1.910093E-01   6.488717E-02   2.356956E-02
   2.398833E+03   1.443540E-01   3.705173E-02   1.787232E-02
   2.754229E+03   1.092656E-01   2.116957E-02   1.353991E-02
   3.162278E+03   8.266638E-02   1.209471E-02   1.024534E-02
   3.630781E+03   6.238839E-02   6.927631E-03   7.762549E-03
   4.168694E+03   4.736356E-02   3.972280E-03   5.881838E-03
   4.786301E+03   3.620740E-02   2.279546E-03   4.456562E-03
   5.495409E+03   2.789094E-02   1.309001E-03   3.375749E-03
   6.309573E+03   2.174461E-02   7.520774E-04   2.555218E-03
   7.244360E+03   1.709259E-02   4.322713E-04   1.930721E-03
   8.317638E+03   1.351649E-02   2.485329E-04   1.452897E-03
   9.549926E+03   1.073336E-02   1.429292E-04   1.082944E-03
   1.096478E+04   8.397547E-03   8.220180E-05   7.888194E-04
   1.258925E+04   6.515912E-03   4.728763E-05   5.420648E-04
   1.445440E+04   5.075379E-03   2.720442E-05   4.096472E-04
   1.659587E+04   3.970281E-03   1.565071E-05   3.091890E-04
   1.905461E+04   3.118526E-03   9.004178E-06   2.329901E-04
   2.187762E+04   2.459178E-03   5.180548E-06   1.751964E-04
   2.511886E+04   1.946780E-03   2.980768E-06   1.313621E-04
   2.884032E+04   1.546941E-03   1.715283E-06   9.812345E-05
   3.311311E+04   1.258594E-03   9.870047E-07   7.290213E-05
   3.801894E+04   1.037231E-03   5.679314E-07   5.376828E-05
   4.365158E+04   8.591205E-04   3.267968E-07   3.925436E-05
   5.011872E+04   7.151375E-04   1.880459E-07   2.824477E-05
   5.754399E+04   5.982841E-04   1.082065E-07   1.989337E-05
   6.606934E+04   5.029032E-04   6.226516E-08   1.355832E-05
   7.585776E+04   4.247469E-04   3.582936E-08   8.752765E-06
   8.709636E+04   3.604435E-04   2.061744E-08   5.107427E-06
   1.000000E+05   3.072663E-04   1.186401E-08   2.342182E-06
