#============================================================================
# Opacities computed by OpTool        <a^n>=  1.6590E-2  2.2147E-2  7.8864E-2
# Method:   DHS  fmax=  0.000
# Parameters:
#   amin [um]=      0.010 amax [um]=    100.000  na  =   61     apow=   3.5    
#   lmin [um]=      0.100 lmax [um]= 100000.000  nlam=  101     nang=   180
#   porosity =      0.000 p_mantle =      0.000  fmax=  0.0     chop=   0.0
# Composition:
#  Where   mfrac  rho   Material
#  -----   -----  ----  -----------------------------------------------------
#  core    0.184  4.83  fes
#  core    0.816  3.30  astrosil
#  - - -   - - -  -  -  - - - - - - - - - - - - - - - - - - - - - - - - - - -
#  grain   1.000  3.50  mixture of  2 materials
#----------------------------------------------------------------------------
# Command: /home/hyliu/bin/optool -a 0.01 100.0 3.5 -l 0.1 100000 101 \
#   -mie -radmc -c fes 0.0743 astrosil 0.3291 -o \
#   ././kappa//temp_regime_3/
#============================================================================
# Output file formatted for RADMC-3D, dustkappa, no scattering matrix
#    iformat
#    nlambda
#    lambda[um]  kabs [cm^2/g]  ksca [cm^2/g]    g_asymmetry
#============================================================================
           3
         101
   1.000000E-01   2.780325E+03   2.288819E+03   6.444356E-01
   1.148154E-01   2.594332E+03   2.211865E+03   6.409480E-01
   1.318257E-01   2.402836E+03   2.137745E+03   6.354499E-01
   1.513561E-01   2.118357E+03   2.157208E+03   6.195833E-01
   1.737801E-01   1.614897E+03   2.239038E+03   6.047855E-01
   1.995262E-01   1.236115E+03   2.239581E+03   5.935145E-01
   2.290868E-01   1.064481E+03   2.115002E+03   5.980297E-01
   2.630268E-01   9.928951E+02   1.940113E+03   6.067502E-01
   3.019952E-01   9.256057E+02   1.791359E+03   6.114970E-01
   3.467369E-01   8.684634E+02   1.653917E+03   6.150353E-01
   3.981072E-01   8.201043E+02   1.526776E+03   6.174295E-01
   4.570882E-01   7.722688E+02   1.416142E+03   6.176261E-01
   5.248075E-01   7.249085E+02   1.318832E+03   6.168107E-01
   6.025596E-01   6.890886E+02   1.223193E+03   6.179910E-01
   6.918310E-01   6.632313E+02   1.129214E+03   6.208503E-01
   7.943282E-01   6.335244E+02   1.047831E+03   6.215435E-01
   9.120108E-01   5.908695E+02   9.830315E+02   6.184791E-01
   1.047129E+00   5.422099E+02   9.266933E+02   6.136660E-01
   1.202264E+00   4.983460E+02   8.693032E+02   6.098293E-01
   1.380384E+00   4.670116E+02   8.076599E+02   6.082606E-01
   1.584893E+00   4.481855E+02   7.475867E+02   6.069813E-01
   1.819701E+00   4.037481E+02   7.186586E+02   5.942296E-01
   2.089296E+00   3.337399E+02   7.112496E+02   5.743499E-01
   2.398833E+00   2.648695E+02   7.003707E+02   5.578488E-01
   2.754229E+00   2.345551E+02   6.580768E+02   5.572672E-01
   3.162278E+00   2.158744E+02   6.095431E+02   5.608884E-01
   3.630781E+00   2.048898E+02   5.587956E+02   5.671602E-01
   4.168694E+00   1.939485E+02   5.116167E+02   5.736463E-01
   4.786301E+00   1.828812E+02   4.663379E+02   5.817362E-01
   5.495409E+00   1.750340E+02   4.180220E+02   5.953125E-01
   6.309573E+00   1.709316E+02   3.641435E+02   6.191254E-01
   7.244360E+00   1.633889E+02   3.000419E+02   6.703369E-01
   8.317638E+00   3.258031E+02   1.499944E+02   7.792137E-01
   9.549926E+00   4.888083E+02   2.036050E+02   6.220490E-01
   1.096478E+01   3.823943E+02   2.241641E+02   5.633166E-01
   1.258925E+01   3.001355E+02   2.147935E+02   5.615669E-01
   1.445440E+01   2.505266E+02   1.912005E+02   6.003383E-01
   1.659587E+01   2.779731E+02   1.620959E+02   6.080387E-01
   1.905461E+01   2.828627E+02   1.641303E+02   5.531508E-01
   2.187762E+01   2.475049E+02   1.622065E+02   5.192336E-01
   2.511886E+01   2.183441E+02   1.545827E+02   4.996081E-01
   2.884032E+01   1.943397E+02   1.449107E+02   4.871355E-01
   3.311311E+01   1.774210E+02   1.352866E+02   4.737575E-01
   3.801894E+01   1.607599E+02   1.261444E+02   4.595651E-01
   4.365158E+01   1.430690E+02   1.177201E+02   4.427227E-01
   5.011872E+01   1.279495E+02   1.090533E+02   4.297505E-01
   5.754399E+01   1.152149E+02   1.007040E+02   4.178915E-01
   6.606934E+01   1.041133E+02   9.278678E+01   4.068642E-01
   7.585776E+01   9.410321E+01   8.542025E+01   3.952421E-01
   8.709636E+01   8.495273E+01   7.860870E+01   3.822479E-01
   1.000000E+02   7.662759E+01   7.225489E+01   3.685158E-01
   1.148154E+02   6.908164E+01   6.630208E+01   3.538122E-01
   1.318257E+02   6.223230E+01   6.069355E+01   3.378746E-01
   1.513561E+02   5.598329E+01   5.532906E+01   3.206408E-01
   1.737801E+02   5.018738E+01   5.010839E+01   3.007902E-01
   1.995262E+02   4.477199E+01   4.507696E+01   2.798787E-01
   2.290868E+02   3.969666E+01   4.019004E+01   2.561921E-01
   2.630268E+02   3.501870E+01   3.567089E+01   2.305592E-01
   3.019952E+02   3.080046E+01   3.177917E+01   2.112872E-01
   3.467369E+02   2.724759E+01   2.749476E+01   1.903558E-01
   3.981072E+02   2.404216E+01   2.331875E+01   1.573984E-01
   4.570882E+02   2.109847E+01   1.948924E+01   1.256197E-01
   5.248075E+02   1.788951E+01   1.639273E+01   1.038800E-01
   6.025596E+02   1.502021E+01   1.389979E+01   9.156420E-02
   6.918310E+02   1.118485E+01   1.076736E+01   6.967251E-02
   7.943282E+02   8.612356E+00   6.405302E+00   1.246519E-01
   9.120108E+02   6.118626E+00   3.335354E+00   2.991209E-01
   1.047129E+03   2.829558E+00   1.413442E+00   2.836138E-01
   1.202264E+03   1.679778E+00   7.102987E-01   1.975107E-01
   1.380384E+03   1.153880E+00   3.815792E-01   1.392444E-01
   1.584893E+03   8.363359E-01   2.105896E-01   1.008453E-01
   1.819701E+03   6.115600E-01   1.178774E-01   7.439326E-02
   2.089296E+03   4.442281E-01   6.651693E-02   5.541158E-02
   2.398833E+03   3.181808E-01   3.772024E-02   4.146166E-02
   2.754229E+03   2.263567E-01   2.146846E-02   3.112425E-02
   3.162278E+03   1.590916E-01   1.224856E-02   2.340163E-02
   3.630781E+03   1.100189E-01   6.999787E-03   1.760671E-02
   4.168694E+03   7.600830E-02   4.005711E-03   1.325749E-02
   4.786301E+03   5.264973E-02   2.294816E-03   9.990504E-03
   5.495409E+03   3.668126E-02   1.315876E-03   7.534711E-03
   6.309573E+03   2.606444E-02   7.550264E-04   5.684003E-03
   7.244360E+03   1.878967E-02   4.334919E-04   4.293735E-03
   8.317638E+03   1.368366E-02   2.490205E-04   3.241953E-03
   9.549926E+03   1.005142E-02   1.431134E-04   2.445156E-03
   1.096478E+04   7.369634E-03   8.225879E-05   1.836407E-03
   1.258925E+04   5.361718E-03   4.729954E-05   1.366961E-03
   1.445440E+04   3.913096E-03   2.720205E-05   9.941307E-04
   1.659587E+04   2.865617E-03   1.564518E-05   7.518040E-04
   1.905461E+04   2.104677E-03   8.999145E-06   5.682670E-04
   2.187762E+04   1.549739E-03   5.176837E-06   4.292513E-04
   2.511886E+04   1.143785E-03   2.978278E-06   3.239314E-04
   2.884032E+04   8.457981E-04   1.713717E-06   2.441933E-04
   3.311311E+04   6.421656E-04   9.860380E-07   1.836712E-04
   3.801894E+04   4.909533E-04   5.673425E-07   1.377615E-04
   4.365158E+04   3.736569E-04   3.264427E-07   1.029491E-04
   5.011872E+04   2.828554E-04   1.878351E-07   7.654967E-05
   5.754399E+04   2.129113E-04   1.080820E-07   5.652902E-05
   6.606934E+04   1.592616E-04   6.219221E-08   4.134511E-05
   7.585776E+04   1.184675E-04   3.578683E-08   2.982894E-05
   8.709636E+04   8.775271E-05   2.059275E-08   2.109418E-05
   1.000000E+05   6.482409E-05   1.184973E-08   1.446882E-05
