#============================================================================
# Opacities computed by OpTool        <a^n>=  1.6590E-2  2.2147E-2  7.8864E-2
# Method:   DHS  fmax=  0.000
# Parameters:
#   amin [um]=      0.010 amax [um]=    100.000  na  =   61     apow=   3.5    
#   lmin [um]=      0.100 lmax [um]= 100000.000  nlam=  101     nang=   180
#   porosity =      0.000 p_mantle =      0.000  fmax=  0.0     chop=   0.0
# Composition:
#  Where   mfrac  rho   Material
#  -----   -----  ----  -----------------------------------------------------
#  core    0.200  0.92  h2o-w
#  core    0.397  1.50  c-org
#  core    0.074  4.83  fes
#  core    0.329  3.30  astrosil
#  - - -   - - -  -  -  - - - - - - - - - - - - - - - - - - - - - - - - - - -
#  grain   1.000  1.68  mixture of  4 materials
#----------------------------------------------------------------------------
# Command: /home/hyliu/bin/optool -a 0.01 100.0 3.5 -l 0.1 100000 101 \
#   -mie -radmc -c h2o-w 0.2 c-org 0.3966 fes 0.0743 astrosil 0.3291 -o \
#   ././kappa//temp_regime_1/
#============================================================================
# Output file formatted for RADMC-3D, dustkappa, no scattering matrix
#    iformat
#    nlambda
#    lambda[um]  kabs [cm^2/g]  ksca [cm^2/g]    g_asymmetry
#============================================================================
           3
         101
   1.000000E-01   5.511669E+03   3.700505E+03   7.361588E-01
   1.148154E-01   5.030567E+03   3.633566E+03   7.383258E-01
   1.318257E-01   4.425390E+03   3.624024E+03   7.356169E-01
   1.513561E-01   3.704164E+03   3.952780E+03   7.038978E-01
   1.737801E-01   2.500831E+03   3.927749E+03   7.142486E-01
   1.995262E-01   2.392789E+03   3.468986E+03   7.326423E-01
   2.290868E-01   2.185481E+03   3.250895E+03   7.325412E-01
   2.630268E-01   1.915269E+03   3.121030E+03   7.267505E-01
   3.019952E-01   1.662440E+03   2.999008E+03   7.209197E-01
   3.467369E-01   1.348802E+03   2.975818E+03   7.069174E-01
   3.981072E-01   1.061835E+03   2.920659E+03   6.977126E-01
   4.570882E-01   8.279567E+02   2.851079E+03   6.902603E-01
   5.248075E-01   7.241807E+02   2.682026E+03   6.917829E-01
   6.025596E-01   6.331410E+02   2.521085E+03   6.924599E-01
   6.918310E-01   5.756796E+02   2.344374E+03   6.942896E-01
   7.943282E-01   5.473995E+02   2.160365E+03   6.967391E-01
   9.120108E-01   4.998121E+02   2.010051E+03   6.954567E-01
   1.047129E+00   4.474891E+02   1.883449E+03   6.921332E-01
   1.202264E+00   4.108081E+02   1.748406E+03   6.919545E-01
   1.380384E+00   4.077331E+02   1.597515E+03   6.949746E-01
   1.584893E+00   3.998677E+02   1.473173E+03   6.958297E-01
   1.819701E+00   3.627788E+02   1.381363E+03   6.953994E-01
   2.089296E+00   3.356181E+02   1.281494E+03   6.988264E-01
   2.398833E+00   3.267016E+02   1.163258E+03   7.082373E-01
   2.754229E+00   3.800649E+02   9.505469E+02   7.450586E-01
   3.162278E+00   8.350264E+02   7.646720E+02   7.273743E-01
   3.630781E+00   3.264013E+02   9.526608E+02   6.813138E-01
   4.168694E+00   2.986402E+02   8.564001E+02   6.957995E-01
   4.786301E+00   2.816022E+02   7.790138E+02   7.019651E-01
   5.495409E+00   3.024554E+02   6.638073E+02   7.260748E-01
   6.309573E+00   3.792812E+02   5.534186E+02   7.423430E-01
   7.244360E+00   3.272267E+02   5.217257E+02   7.410739E-01
   8.317638E+00   3.764253E+02   3.980519E+02   7.809631E-01
   9.549926E+00   5.019247E+02   3.135984E+02   7.858918E-01
   1.096478E+01   5.568552E+02   2.912960E+02   7.646502E-01
   1.258925E+01   5.472145E+02   3.112532E+02   7.215439E-01
   1.445440E+01   4.651177E+02   3.100868E+02   7.091269E-01
   1.659587E+01   4.463559E+02   2.879321E+02   7.010317E-01
   1.905461E+01   4.038572E+02   2.773519E+02   6.887092E-01
   2.187762E+01   3.554984E+02   2.638286E+02   6.824249E-01
   2.511886E+01   3.397304E+02   2.348956E+02   6.854415E-01
   2.884032E+01   3.418285E+02   2.169854E+02   6.700179E-01
   3.311311E+01   3.175030E+02   2.073590E+02   6.534782E-01
   3.801894E+01   2.980499E+02   1.917210E+02   6.445528E-01
   4.365158E+01   2.911180E+02   1.732191E+02   6.359444E-01
   5.011872E+01   2.677748E+02   1.807640E+02   5.860289E-01
   5.754399E+01   2.132870E+02   1.773810E+02   5.768982E-01
   6.606934E+01   2.012002E+02   1.589547E+02   5.738813E-01
   7.585776E+01   1.733043E+02   1.542463E+02   5.528527E-01
   8.709636E+01   1.447608E+02   1.486272E+02   5.363172E-01
   1.000000E+02   1.208722E+02   1.419413E+02   5.194806E-01
   1.148154E+02   1.002184E+02   1.347146E+02   5.011711E-01
   1.318257E+02   8.231011E+01   1.274314E+02   4.834856E-01
   1.513561E+02   6.674584E+01   1.194401E+02   4.645290E-01
   1.737801E+02   5.424420E+01   1.101038E+02   4.417194E-01
   1.995262E+02   4.406323E+01   1.015809E+02   4.221759E-01
   2.290868E+02   3.488346E+01   9.498491E+01   4.101335E-01
   2.630268E+02   2.687353E+01   8.737865E+01   4.094509E-01
   3.019952E+02   1.961308E+01   7.800664E+01   4.078184E-01
   3.467369E+02   1.500760E+01   6.568622E+01   4.076122E-01
   3.981072E+02   9.491581E+00   5.058446E+01   3.843511E-01
   4.570882E+02   6.773382E+00   3.780221E+01   3.913655E-01
   5.248075E+02   4.325696E+00   2.321026E+01   4.050230E-01
   6.025596E+02   2.431192E+00   1.175184E+01   2.935392E-01
   6.918310E+02   1.590233E+00   6.459859E+00   2.021758E-01
   7.943282E+02   1.123891E+00   3.573664E+00   1.450196E-01
   9.120108E+02   8.352065E-01   1.976698E+00   1.067143E-01
   1.047129E+03   6.330362E-01   1.097811E+00   7.960809E-02
   1.202264E+03   4.881633E-01   6.133471E-01   5.982850E-02
   1.380384E+03   3.777970E-01   3.447493E-01   4.514863E-02
   1.584893E+03   2.917236E-01   1.947244E-01   3.414227E-02
   1.819701E+03   2.236761E-01   1.103916E-01   2.584394E-02
   2.089296E+03   1.709850E-01   6.284893E-02   1.958694E-02
   2.398833E+03   1.306908E-01   3.595191E-02   1.486917E-02
   2.754229E+03   1.000851E-01   2.057084E-02   1.127849E-02
   3.162278E+03   7.665775E-02   1.176721E-02   8.546642E-03
   3.630781E+03   5.865928E-02   6.746059E-03   6.480095E-03
   4.168694E+03   4.511794E-02   3.870826E-03   4.912250E-03
   4.786301E+03   3.490213E-02   2.222504E-03   3.722053E-03
   5.495409E+03   2.716911E-02   1.276784E-03   2.821777E-03
   6.309573E+03   2.134455E-02   7.338136E-04   2.135740E-03
   7.244360E+03   1.687429E-02   4.218822E-04   1.612880E-03
   8.317638E+03   1.340272E-02   2.426063E-04   1.211885E-03
   9.549926E+03   1.067899E-02   1.395402E-04   8.999798E-04
   1.096478E+04   8.384168E-03   8.026286E-05   6.496864E-04
   1.258925E+04   6.532078E-03   4.617574E-05   4.357681E-04
   1.445440E+04   5.106514E-03   2.656637E-05   3.290331E-04
   1.659587E+04   4.007378E-03   1.528449E-05   2.480577E-04
   1.905461E+04   3.156470E-03   8.793898E-06   1.866321E-04
   2.187762E+04   2.496670E-03   5.059744E-06   1.400389E-04
   2.511886E+04   1.981732E-03   2.911333E-06   1.046966E-04
   2.884032E+04   1.578405E-03   1.675329E-06   7.789241E-05
   3.311311E+04   1.285246E-03   9.640238E-07   5.755567E-05
   3.801894E+04   1.059647E-03   5.547149E-07   4.212781E-05
   4.365158E+04   8.789208E-04   3.191949E-07   3.042476E-05
   5.011872E+04   7.327899E-04   1.836730E-07   2.154720E-05
   5.754399E+04   6.139989E-04   1.056908E-07   1.481295E-05
   6.606934E+04   5.172265E-04   6.081785E-08   9.704546E-06
   7.585776E+04   4.378900E-04   3.499665E-08   5.829448E-06
   8.709636E+04   3.723905E-04   2.013831E-08   2.889900E-06
   1.000000E+05   3.183333E-04   1.158832E-08   6.600330E-07
