#============================================================================
# Opacities computed by OpTool        <a^n>=  1.6590E-2  2.2147E-2  7.8864E-2
# Method:   DHS  fmax=  0.000
# Parameters:
#   amin [um]=      0.010 amax [um]=    100.000  na  =   61     apow=   3.5    
#   lmin [um]=      0.100 lmax [um]= 100000.000  nlam=  101     nang=   180
#   porosity =      0.000 p_mantle =      0.000  fmax=  0.0     chop=   0.0
# Composition:
#  Where   mfrac  rho   Material
#  -----   -----  ----  -----------------------------------------------------
#  core    1.000  3.30  astrosil
#  - - -   - - -  -  -  - - - - - - - - - - - - - - - - - - - - - - - - - - -
#  grain   1.000  3.30  mixture of  1 materials
#----------------------------------------------------------------------------
# Command: /home/hyliu/bin/optool -a 0.01 100.0 3.5 -l 0.1 100000 101 \
#   -mie -radmc -c astrosil 0.3291 -o ././kappa//temp_regime_4/
#============================================================================
# Output file formatted for RADMC-3D, dustkappa, no scattering matrix
#    iformat
#    nlambda
#    lambda[um]  kabs [cm^2/g]  ksca [cm^2/g]    g_asymmetry
#============================================================================
           3
         101
   1.000000E-01   2.988761E+03   2.232756E+03   6.713860E-01
   1.148154E-01   2.774608E+03   2.134991E+03   6.752771E-01
   1.318257E-01   2.548332E+03   2.066162E+03   6.731390E-01
   1.513561E-01   2.189983E+03   2.132165E+03   6.569375E-01
   1.737801E-01   1.496976E+03   2.309373E+03   6.371862E-01
   1.995262E-01   9.104760E+02   2.425816E+03   6.156519E-01
   2.290868E-01   6.652084E+02   2.332416E+03   6.221791E-01
   2.630268E-01   6.311297E+02   2.110845E+03   6.380088E-01
   3.019952E-01   5.906778E+02   1.930977E+03   6.472474E-01
   3.467369E-01   5.509778E+02   1.776497E+03   6.534420E-01
   3.981072E-01   5.129869E+02   1.640119E+03   6.576391E-01
   4.570882E-01   4.761436E+02   1.519264E+03   6.600293E-01
   5.248075E-01   4.431398E+02   1.409603E+03   6.609564E-01
   6.025596E-01   4.150144E+02   1.308094E+03   6.610063E-01
   6.918310E-01   3.880147E+02   1.212568E+03   6.611312E-01
   7.943282E-01   3.631682E+02   1.124926E+03   6.605943E-01
   9.120108E-01   3.424262E+02   1.047743E+03   6.596472E-01
   1.047129E+00   3.217403E+02   9.784112E+02   6.595209E-01
   1.202264E+00   3.014905E+02   9.139423E+02   6.601381E-01
   1.380384E+00   2.824328E+02   8.514177E+02   6.615255E-01
   1.584893E+00   2.637038E+02   7.898974E+02   6.628623E-01
   1.819701E+00   2.462868E+02   7.314735E+02   6.639030E-01
   2.089296E+00   2.310854E+02   6.764176E+02   6.646255E-01
   2.398833E+00   2.185377E+02   6.239061E+02   6.656359E-01
   2.754229E+00   2.072995E+02   5.734912E+02   6.676821E-01
   3.162278E+00   1.970568E+02   5.252973E+02   6.709698E-01
   3.630781E+00   1.876743E+02   4.801859E+02   6.753686E-01
   4.168694E+00   1.778529E+02   4.376720E+02   6.817644E-01
   4.786301E+00   1.675198E+02   3.957998E+02   6.915380E-01
   5.495409E+00   1.599510E+02   3.494940E+02   7.089434E-01
   6.309573E+00   1.562710E+02   2.956727E+02   7.390593E-01
   7.244360E+00   1.488662E+02   2.220449E+02   8.012397E-01
   8.317638E+00   3.130254E+02   1.047601E+02   8.477379E-01
   9.549926E+00   5.459225E+02   1.815672E+02   6.687028E-01
   1.096478E+01   4.567358E+02   2.077572E+02   6.110252E-01
   1.258925E+01   3.433126E+02   2.004226E+02   6.144354E-01
   1.445440E+01   2.721847E+02   1.708993E+02   6.655698E-01
   1.659587E+01   3.123567E+02   1.415323E+02   6.691851E-01
   1.905461E+01   3.366030E+02   1.517283E+02   6.008019E-01
   2.187762E+01   2.960038E+02   1.551906E+02   5.614416E-01
   2.511886E+01   2.588091E+02   1.502703E+02   5.401069E-01
   2.884032E+01   2.274177E+02   1.428441E+02   5.246263E-01
   3.311311E+01   2.011199E+02   1.347089E+02   5.109507E-01
   3.801894E+01   1.794347E+02   1.260772E+02   4.992044E-01
   4.365158E+01   1.599883E+02   1.178806E+02   4.864617E-01
   5.011872E+01   1.427963E+02   1.097801E+02   4.747078E-01
   5.754399E+01   1.276193E+02   1.019251E+02   4.636529E-01
   6.606934E+01   1.141247E+02   9.446203E+01   4.526991E-01
   7.585776E+01   1.020324E+02   8.746276E+01   4.413916E-01
   8.709636E+01   9.109873E+01   8.096496E+01   4.291525E-01
   1.000000E+02   8.112833E+01   7.495662E+01   4.155400E-01
   1.148154E+02   7.196007E+01   6.939541E+01   4.001944E-01
   1.318257E+02   6.347372E+01   6.424834E+01   3.826396E-01
   1.513561E+02   5.557271E+01   5.942238E+01   3.625270E-01
   1.737801E+02   4.820068E+01   5.495426E+01   3.413794E-01
   1.995262E+02   4.132299E+01   5.056963E+01   3.159235E-01
   2.290868E+02   3.489990E+01   4.672871E+01   2.918776E-01
   2.630268E+02   2.872177E+01   4.337526E+01   2.718605E-01
   3.019952E+02   2.321657E+01   3.949224E+01   2.505348E-01
   3.467369E+02   1.864404E+01   3.584817E+01   2.250244E-01
   3.981072E+02   1.493275E+01   3.319563E+01   2.029435E-01
   4.570882E+02   1.085081E+01   2.997086E+01   1.966321E-01
   5.248075E+02   8.363486E+00   2.782812E+01   1.778203E-01
   6.025596E+02   5.671155E+00   2.142675E+01   1.547156E-01
   6.918310E+02   4.012146E+00   1.373188E+01   2.006820E-01
   7.943282E+02   1.623849E+00   4.949567E+00   3.890494E-01
   9.120108E+02   7.381597E-01   2.133368E+00   2.496144E-01
   1.047129E+03   4.736258E-01   1.099941E+00   1.669669E-01
   1.202264E+03   3.367381E-01   5.918542E-01   1.174573E-01
   1.380384E+03   2.502385E-01   3.251755E-01   8.507301E-02
   1.584893E+03   1.905653E-01   1.809380E-01   6.261513E-02
   1.819701E+03   1.473011E-01   1.015783E-01   4.654572E-02
   2.089296E+03   1.149897E-01   5.739086E-02   3.481886E-02
   2.398833E+03   9.040027E-02   3.257476E-02   2.615172E-02
   2.754229E+03   7.138221E-02   1.855775E-02   1.970514E-02
   3.162278E+03   5.656134E-02   1.059971E-02   1.487684E-02
   3.630781E+03   4.494249E-02   6.065338E-03   1.124491E-02
   4.168694E+03   3.577766E-02   3.475737E-03   8.507608E-03
   4.786301E+03   2.852291E-02   1.993894E-03   6.440198E-03
   5.495409E+03   2.276630E-02   1.144785E-03   4.876620E-03
   6.309573E+03   1.818673E-02   6.576874E-04   3.692034E-03
   7.244360E+03   1.453559E-02   3.780120E-04   2.792368E-03
   8.317638E+03   1.162203E-02   2.173429E-04   2.106449E-03
   9.549926E+03   9.277394E-03   1.250015E-04   1.596342E-03
   1.096478E+04   7.171150E-03   7.189244E-05   1.196076E-03
   1.258925E+04   5.433940E-03   4.136160E-05   8.828635E-04
   1.445440E+04   4.116812E-03   2.379692E-05   6.275104E-04
   1.659587E+04   3.121038E-03   1.369052E-05   4.744266E-04
   1.905461E+04   2.366792E-03   7.876362E-06   3.582979E-04
   2.187762E+04   1.794891E-03   4.531627E-06   2.702305E-04
   2.511886E+04   1.361183E-03   2.607402E-06   2.034461E-04
   2.884032E+04   1.031977E-03   1.500563E-06   1.528437E-04
   3.311311E+04   7.826217E-04   8.634711E-07   1.144176E-04
   3.801894E+04   5.935936E-04   4.968487E-07   8.525870E-05
   4.365158E+04   4.502288E-04   2.858947E-07   6.314102E-05
   5.011872E+04   3.414959E-04   1.645101E-07   4.636395E-05
   5.754399E+04   2.591254E-04   9.466342E-08   3.363777E-05
   6.606934E+04   1.965629E-04   5.447213E-08   2.398427E-05
   7.585776E+04   1.490895E-04   3.134501E-08   1.666153E-05
   8.709636E+04   1.131029E-04   1.803698E-08   1.110675E-05
   1.000000E+05   8.580286E-05   1.037912E-08   6.893082E-06
